% company_type = A;
 /*
% The minimum earnings to obtain.
budget = 1000;
minimum_earnings = 1312;
available_time_in_hours = 1760;

% Co2 related constraints
previous_year_co2_emissions = 2000;
previous_year_energy_consumption = 1800; %181000
previous_year_water_consumption = 1500; %183000

years_to_reach_the_reduction_goals = 5;

Items = {Paper, Recicled_Paper, Cardboard};

item_costs = [1, 2, 1];
item_selling_prices = [6, 5, 2];
item_co2_emissions = [10, 1, 2];
item_times = [1, 2, 2];
item_extra_energy_consumption = [5, 1, 1];
item_extra_water_consumption = [5, 1, 1];
% an already recicled material is less reciclable than a non recicled one
% optional parameter (default = [])
item_reciclable_compositions = [1, 0.85, 0.4];
% times_to_produce = [];
% minimum_number_of_items_to_make = [];
% raw_materials_of_items = [];

% Maybe turn arrays in a big matrix
Equipment = {M1, M2, M3};
yearly_equipment_max_usage = [2000, 1200, 1100];
equipment_energy_consumption_per_hour = [9, 2, 3];
equipment_co2_emission_per_hour = [9, 2, 3];
equipment_water_consumption_per_hour = [9, 1, 2];

equipment_prices = [20, 20, 20];
equipment_disposal_prices = [5, 8, 18];
max_equipment_number = 5;

% m_linked_items = [|true, false|true, true|true,true|];
% Should be <= sum(yearly_equipment_max_usage)
starting_equipment = [0, 1, 1];
% max_hour_equipment_usage = 5000;
equipment_budget = 10;

starting_certifications = [false, false, false];

use_logistics_kpis = true;
% items_delivery_total_time = 5000;

*/

% ["Paper: 27", "Recicled_Paper: 230", "Cardboard: 0"];

% company_type = A;

% The minimum earnings to obtain.
budget = 1100;
minimum_earnings = 1800;
available_time_in_hours = 1760;

% Co2 related constraints
previous_year_co2_emissions = 2700;
previous_year_energy_consumption = 2200; 
previous_year_water_consumption = 2200; 

years_to_reach_the_reduction_goals = 5;

Items = {Paper, Recicled_Paper, Cardboard};

item_costs = [1, 2, 1];
item_selling_prices = [4, 4, 2];
item_co2_emissions = [10, 1, 2];
item_times = [2, 3, 3];
item_extra_energy_consumption = [5, 1, 1];
item_extra_water_consumption = [5, 1, 1];
% an already recicled material is less reciclable than a non recicled one
% optional parameter (default = [])
item_reciclable_compositions = [1, 0.85, 0.4];
% times_to_produce = [];
% minimum_number_of_items_to_make = [];
% raw_materials_of_items = [];

% Maybe turn arrays in a big matrix
Equipment = {M1, M2, M3};
yearly_equipment_max_usage = [1400, 1200, 850];
equipment_energy_consumption_per_hour = [1, 2, 3];
equipment_co2_emission_per_hour = [1, 3, 3];
equipment_water_consumption_per_hour = [1, 2, 3];

equipment_prices = [20, 25, 20];
equipment_disposal_prices = [15, 12, 10];
max_equipment_number = 1;

% m_linked_items = [|true, false|true, true|true,true|];
% Should be <= sum(yearly_equipment_max_usage)
starting_equipment = [0, 0, 1];
% max_hour_equipment_usage = 5000;
equipment_budget = 10;

starting_certifications = [true, false, false];

use_logistics_kpis = true;
% items_delivery_total_time = 5000;
